Maximize
  3.5620988277010156e-04 Z_342_0_0 + 0.00104216736457491 Z_342_0_1
   + 0.7845175964300386 Z_342_0_2 + 7.1535810996683634e-04 Z_342_0_3
   + 0.1133686682126496 Z_342_0_4 + 0.00258887946666261 Z_186_0_0
   + 0.5033725465253532 Z_186_0_1 + 0.013021118585995 Z_186_0_2
   + 0.0619174119139431 Z_186_0_3 + 0.3191000435080462 Z_186_0_4
   + 0.0459252745285578 Z_704_6_0 + 0.00755216946777325 Z_704_6_1
   + 0.0255716844435629 Z_704_6_2 + 0.0151355856712584 Z_704_6_3
   + 0.8058152858888475 Z_704_6_4 + 0.00570322897174752 Z_704_0_0
   + 0.00227153168469504 Z_704_0_1 + 0.1613192320467385 Z_704_0_2
   + 0.00762636217644861 Z_704_0_3 + 0.7230796451203704 Z_704_0_4
   + 0.0561835240883206 Z_704_5_0 + 0.020711281241515 Z_704_5_1
   + 0.0265162532722768 Z_704_5_2 + 0.3310109588782087 Z_704_5_3
   + 0.4655779825196789 Z_704_5_4 + 3.83136250984053e-04 Z_704_2_0
   + 0.00169218821714471 Z_704_2_1 + 0.8200711914569635 Z_704_2_2
   + 0.00112259562187711 Z_704_2_3 + 0.0767308884530306 Z_704_2_4
   + 0.0470486015282265 Z_704_3_0 + 0.0198032440268948 Z_704_3_1
   + 0.013520500254064 Z_704_3_2 + 0.0132818945739754 Z_704_3_3
   + 0.8063457596168392 Z_704_3_4 + 0.00570322897174752 Z_704_1_0
   + 0.00227153168469504 Z_704_1_1 + 0.1613192320467385 Z_704_1_2
   + 0.00762636217644861 Z_704_1_3 + 0.7230796451203704 Z_704_1_4
   + 0.0214571837323822 Z_6_0_0 + 0.7788116070532242 Z_6_0_1
   + 0.00767277815202834 Z_6_0_2 + 0.00283249372812273 Z_6_0_3
   + 0.0892259373342425 Z_6_0_4 + 2.7938634224444243e-04 Z_456_1_0
   + 0.00121804453335746 Z_456_1_1 + 0.6842175205600134 Z_456_1_2
   + 7.0252338254427884e-04 Z_456_1_3 + 0.2135825251818405 Z_456_1_4
   + 0.0491786522212543 Z_456_2_0 + 0.0140512040864495 Z_456_2_1
   + 0.082881288150761 Z_456_2_2 + 0.5240572193197827 Z_456_2_3
   + 0.2298316362217525 Z_456_2_4 + 2.7938634224444243e-04 Z_456_0_0
   + 0.00121804453335746 Z_456_0_1 + 0.6842175205600134 Z_456_0_2
   + 7.0252338254427884e-04 Z_456_0_3 + 0.2135825251818405 Z_456_0_4
   + 0.00657284 Z_305_0_0 + 0.3498698437938352 Z_305_0_1
   + 0.00753903634886771 Z_305_0_2 + 0.1070519384760336 Z_305_0_3
   + 0.4289663414252854 Z_305_0_4 + 0.0463331952133675 Z_305_8_0
   + 0.1274164630235878 Z_305_8_1 + 0.022267781971799 Z_305_8_2
   + 0.0181786757245084 Z_305_8_3 + 0.6858038840667373 Z_305_8_4
   + 0.00691563912579892 Z_305_3_0 + 0.0137984463630466 Z_305_3_1
   + 0.3414899447134042 Z_305_3_2 + 0.0103759051695313 Z_305_3_3
   + 0.5274200646282191 Z_305_3_4 + 0.00707699514088694 Z_305_7_0
   + 0.0690352224683549 Z_305_7_1 + 0.0852873450568043 Z_305_7_2
   + 0.0145353202820861 Z_305_7_3 + 0.7240651170518676 Z_305_7_4
   + 0.0463331952133675 Z_305_6_0 + 0.1274164630235878 Z_305_6_1
   + 0.022267781971799 Z_305_6_2 + 0.0181786757245084 Z_305_6_3
   + 0.6858038840667373 Z_305_6_4 + 0.000792236 Z_305_2_0
   + 0.00395440147712916 Z_305_2_1 + 0.00659316843342379 Z_305_2_2
   + 0.00372497131285787 Z_305_2_3 + 0.8849352227948268 Z_305_2_4
   + 0.0463331952133675 Z_305_4_0 + 0.1274164630235878 Z_305_4_1
   + 0.022267781971799 Z_305_4_2 + 0.0181786757245084 Z_305_4_3
   + 0.6858038840667373 Z_305_4_4 + 0.0463331952133675 Z_305_9_0
   + 0.1274164630235878 Z_305_9_1 + 0.022267781971799 Z_305_9_2
   + 0.0181786757245084 Z_305_9_3 + 0.6858038840667373 Z_305_9_4
   + 0.0317062320710278 Z_305_5_0 + 0.0270803885434545 Z_305_5_1
   + 0.0121291879359634 Z_305_5_2 + 0.00930778592027006 Z_305_5_3
   + 0.8197764055292843 Z_305_5_4 + 0.000163627 Z_172_0_0
   + 0.00163153433995963 Z_172_0_1 + 0.8628425212963491 Z_172_0_2
   + 0.00147688926148872 Z_172_0_3 + 0.0338854280820867 Z_172_0_4
   + 4.4386261022999669e-04 Z_255_0_0 + 0.00197416 Z_255_0_1
   + 0.7577826265515171 Z_255_0_2 + 0.00171341700327992 Z_255_0_3
   + 0.1380859338615416 Z_255_0_4 + 0.00389958376508219 Z_268_0_0
   + 0.7003198600427304 Z_268_0_1 + 0.0189557611568323 Z_268_0_2
   + 0.0180637211297793 Z_268_0_3 + 0.1587610739055758 Z_268_0_4
   + 8.4028328849282288e-04 Z_648_0_0 + 0.00252717687200998 Z_648_0_1
   + 0.7474504362546158 Z_648_0_2 + 0.00251999510253625 Z_648_0_3
   + 0.1466621084823451 Z_648_0_4 + 0.0129896190543379 Z_648_4_0
   + 0.0337063949883752 Z_648_4_1 + 0.2017885111591634 Z_648_4_2
   + 0.00410674027829253 Z_648_4_3 + 0.6474087345198311 Z_648_4_4
   + 0.00835579772934003 Z_648_2_0 + 0.00226209265993014 Z_648_2_1
   + 0.0951010866412747 Z_648_2_2 + 0.00878934251797959 Z_648_2_3
   + 0.7854916804514755 Z_648_2_4 + 0.00835579772934003 Z_648_1_0
   + 0.00226209265993014 Z_648_1_1 + 0.0951010866412747 Z_648_1_2
   + 0.00878934251797959 Z_648_1_3 + 0.7854916804514755 Z_648_1_4
   + 0.0696929892726824 Z_648_5_0 + 0.0180226548514304 Z_648_5_1
   + 0.0341232072965182 Z_648_5_2 + 0.0231125735894298 Z_648_5_3
   + 0.755048574989939 Z_648_5_4 + 0.4191660324721933 Z_648_3_0
   + 0.0173303129096369 Z_648_3_1 + 0.00192274989678557 Z_648_3_2
   + 0.0602323469177614 Z_648_3_3 + 0.4013485578036229 Z_648_3_4
   + 8.4028328849282288e-04 Z_648_17_0 + 0.00252717687200998 Z_648_17_1
   + 0.7474504362546158 Z_648_17_2 + 0.00251999510253625 Z_648_17_3
   + 0.1466621084823451 Z_648_17_4 + 4.8800622914669899e-04 Z_89_4_0
   + 0.00409372461965908 Z_89_4_1 + 0.5095289390520661 Z_89_4_2
   + 0.0046707958637301 Z_89_4_3 + 0.381218534235398 Z_89_4_4
   + 0.000486082 Z_89_1_0 + 0.000916873 Z_89_1_1
   + 0.8352859038652763 Z_89_1_2 + 0.00148202276638387 Z_89_1_3
   + 0.0618291185422335 Z_89_1_4 + 0.0669612639128818 Z_89_6_0
   + 0.066467138671219 Z_89_6_1 + 0.0810873541937111 Z_89_6_2
   + 0.0406384886723024 Z_89_6_3 + 0.6448457545498857 Z_89_6_4
   + 0.058584130360061 Z_89_2_0 + 0.0632991436496276 Z_89_2_1
   + 0.027103156768453 Z_89_2_2 + 0.4166597860256127 Z_89_2_3
   + 0.3343537831962459 Z_89_2_4 + 0.0470486015282265 Z_89_3_0
   + 0.0198032440268948 Z_89_3_1 + 0.013520500254064 Z_89_3_2
   + 0.0132818945739754 Z_89_3_3 + 0.8063457596168392 Z_89_3_4
   + 0.000486082 Z_89_0_0 + 0.000916873 Z_89_0_1
   + 0.8352859038652763 Z_89_0_2 + 0.00148202276638387 Z_89_0_3
   + 0.0618291185422335 Z_89_0_4 + 2.2331017977641232e-04 Z_274_1_0
   + 0.00118463195184883 Z_274_1_1 + 0.7564078433384549 Z_274_1_2
   + 6.3009343452486864e-04 Z_274_1_3 + 0.1415541210953949 Z_274_1_4
   + 2.2331017977641232e-04 Z_274_0_0 + 0.00118463195184883 Z_274_0_1
   + 0.7564078433384549 Z_274_0_2 + 6.3009343452486864e-04 Z_274_0_3
   + 0.1415541210953949 Z_274_0_4 + 0.00319978499013391 Z_20_0_0
   + 0.0213303327119248 Z_20_0_1 + 0.0341301500648958 Z_20_0_2
   + 0.0305840690895904 Z_20_0_3 + 0.8107556631434552 Z_20_0_4
   + 0.00375774900341402 Z_534_0_0 + 0.3944956678638444 Z_534_0_1
   + 0.00782338764256674 Z_534_0_2 + 0.2275454894305363 Z_534_0_3
   + 0.2663777060596386 Z_534_0_4 + 0.000273661 Z_301_0_0
   + 9.9568186567205921e-04 Z_301_0_1 + 0.8794055213987897 Z_301_0_2
   + 0.00226148143067187 Z_301_0_3 + 0.0170636542512422 Z_301_0_4
   + 0.00401802187556689 Z_737_0_0 + 0.6561975029831298 Z_737_0_1
   + 0.0401808376478987 Z_737_0_2 + 0.0535029146435339 Z_737_0_3
   + 0.1461007228498707 Z_737_0_4 + 0.00691563912579892 Z_737_2_0
   + 0.0137984463630466 Z_737_2_1 + 0.3414899447134042 Z_737_2_2
   + 0.0103759051695313 Z_737_2_3 + 0.5274200646282191 Z_737_2_4
   + 0.00480296421700587 Z_737_4_0 + 0.0260927986086765 Z_737_4_1
   + 0.0885101737129137 Z_737_4_2 + 0.0920612294309116 Z_737_4_3
   + 0.6885328340304924 Z_737_4_4 + 0.0122172993215655 Z_737_5_0
   + 0.2563892612004328 Z_737_5_1 + 0.00169399774692757 Z_737_5_2
   + 0.2448571697000253 Z_737_5_3 + 0.3848422720310487 Z_737_5_4
   + 0.00101200304218901 Z_737_1_0 + 0.00305845067539914 Z_737_1_1
   + 0.00595028928306074 Z_737_1_2 + 0.00428103673786429 Z_737_1_3
   + 0.8856982202614868 Z_737_1_4 + 0.0122172993215655 Z_737_3_0
   + 0.2563892612004328 Z_737_3_1 + 0.00169399774692757 Z_737_3_2
   + 0.2448571697000253 Z_737_3_3 + 0.3848422720310487 Z_737_3_4
   + 0.0122172993215655 Z_737_6_0 + 0.2563892612004328 Z_737_6_1
   + 0.00169399774692757 Z_737_6_2 + 0.2448571697000253 Z_737_6_3
   + 0.3848422720310487 Z_737_6_4 + 4.4360839376680081e-04 Z_480_0_0
   + 0.000754526 Z_480_0_1 + 0.8444831603712972 Z_480_0_2
   + 0.00829160479176121 Z_480_0_3 + 0.0460271004705494 Z_480_0_4
   + 0.0246439474650321 Z_480_3_0 + 0.0835890646129241 Z_480_3_1
   + 0.0213318987182241 Z_480_3_2 + 0.0864912352250499 Z_480_3_3
   + 0.6839438539787699 Z_480_3_4 + 0.0165308598043349 Z_323_0_0
   + 0.7894866895080556 Z_323_0_1 + 0.00764167162922698 Z_323_0_2
   + 0.00288842108577513 Z_323_0_3 + 0.0834523579726074 Z_323_0_4
   + 0.000158473 Z_173_0_0 + 0.00150243034964675 Z_173_0_1
   + 0.8532226235347115 Z_173_0_2 + 0.001287764921008 Z_173_0_3
   + 0.0438287082686549 Z_173_0_4 + 0.0127861801185883 Z_173_3_0
   + 0.0263523218660506 Z_173_3_1 + 0.0137067315306755 Z_173_3_2
   + 0.725596015810369 Z_173_3_3 + 0.1215587506743165 Z_173_3_4
   + 0.0126972100584099 Z_173_2_0 + 0.0304705209904089 Z_173_2_1
   + 0.0472772048688606 Z_173_2_2 + 0.137766644084259 Z_173_2_3
   + 0.6717884199980616 Z_173_2_4 + 0.1352490298628103 Z_173_1_0
   + 0.0770660868936885 Z_173_1_1 + 0.028824109603803 Z_173_1_2
   + 0.00384144262408625 Z_173_1_3 + 0.655019331015612 Z_173_1_4
   + 0.0283516027461408 Z_184_0_0 + 0.1373728939482792 Z_184_0_1
   + 0.038130634362762 Z_184_0_2 + 0.1144385808892779 Z_184_0_3
   + 0.5817062880535402 Z_184_0_4
Subject To
 constraint1_3420: Z_342_0_0 + Z_342_0_1 + Z_342_0_2 + Z_342_0_3
   + Z_342_0_4 <= 1
 constraint1_1860: Z_186_0_0 + Z_186_0_1 + Z_186_0_2 + Z_186_0_3
   + Z_186_0_4 <= 1
 constraint1_7046: Z_704_6_0 + Z_704_6_1 + Z_704_6_2 + Z_704_6_3
   + Z_704_6_4 <= 1
 constraint1_7040: Z_704_0_0 + Z_704_0_1 + Z_704_0_2 + Z_704_0_3
   + Z_704_0_4 <= 1
 constraint1_7045: Z_704_5_0 + Z_704_5_1 + Z_704_5_2 + Z_704_5_3
   + Z_704_5_4 <= 1
 constraint1_7042: Z_704_2_0 + Z_704_2_1 + Z_704_2_2 + Z_704_2_3
   + Z_704_2_4 <= 1
 constraint1_7043: Z_704_3_0 + Z_704_3_1 + Z_704_3_2 + Z_704_3_3
   + Z_704_3_4 <= 1
 constraint1_7041: Z_704_1_0 + Z_704_1_1 + Z_704_1_2 + Z_704_1_3
   + Z_704_1_4 <= 1
 constraint1_60: Z_6_0_0 + Z_6_0_1 + Z_6_0_2 + Z_6_0_3 + Z_6_0_4 <= 1
 constraint1_4561: Z_456_1_0 + Z_456_1_1 + Z_456_1_2 + Z_456_1_3
   + Z_456_1_4 <= 1
 constraint1_4562: Z_456_2_0 + Z_456_2_1 + Z_456_2_2 + Z_456_2_3
   + Z_456_2_4 <= 1
 constraint1_4560: Z_456_0_0 + Z_456_0_1 + Z_456_0_2 + Z_456_0_3
   + Z_456_0_4 <= 1
 constraint1_3050: Z_305_0_0 + Z_305_0_1 + Z_305_0_2 + Z_305_0_3
   + Z_305_0_4 <= 1
 constraint1_3058: Z_305_8_0 + Z_305_8_1 + Z_305_8_2 + Z_305_8_3
   + Z_305_8_4 <= 1
 constraint1_3053: Z_305_3_0 + Z_305_3_1 + Z_305_3_2 + Z_305_3_3
   + Z_305_3_4 <= 1
 constraint1_3057: Z_305_7_0 + Z_305_7_1 + Z_305_7_2 + Z_305_7_3
   + Z_305_7_4 <= 1
 constraint1_3056: Z_305_6_0 + Z_305_6_1 + Z_305_6_2 + Z_305_6_3
   + Z_305_6_4 <= 1
 constraint1_3052: Z_305_2_0 + Z_305_2_1 + Z_305_2_2 + Z_305_2_3
   + Z_305_2_4 <= 1
 constraint1_3054: Z_305_4_0 + Z_305_4_1 + Z_305_4_2 + Z_305_4_3
   + Z_305_4_4 <= 1
 constraint1_3059: Z_305_9_0 + Z_305_9_1 + Z_305_9_2 + Z_305_9_3
   + Z_305_9_4 <= 1
 constraint1_3055: Z_305_5_0 + Z_305_5_1 + Z_305_5_2 + Z_305_5_3
   + Z_305_5_4 <= 1
 constraint1_1720: Z_172_0_0 + Z_172_0_1 + Z_172_0_2 + Z_172_0_3
   + Z_172_0_4 <= 1
 constraint1_2550: Z_255_0_0 + Z_255_0_1 + Z_255_0_2 + Z_255_0_3
   + Z_255_0_4 <= 1
 constraint1_2680: Z_268_0_0 + Z_268_0_1 + Z_268_0_2 + Z_268_0_3
   + Z_268_0_4 <= 1
 constraint1_6480: Z_648_0_0 + Z_648_0_1 + Z_648_0_2 + Z_648_0_3
   + Z_648_0_4 <= 1
 constraint1_6484: Z_648_4_0 + Z_648_4_1 + Z_648_4_2 + Z_648_4_3
   + Z_648_4_4 <= 1
 constraint1_6482: Z_648_2_0 + Z_648_2_1 + Z_648_2_2 + Z_648_2_3
   + Z_648_2_4 <= 1
 constraint1_6481: Z_648_1_0 + Z_648_1_1 + Z_648_1_2 + Z_648_1_3
   + Z_648_1_4 <= 1
 constraint1_6485: Z_648_5_0 + Z_648_5_1 + Z_648_5_2 + Z_648_5_3
   + Z_648_5_4 <= 1
 constraint1_6483: Z_648_3_0 + Z_648_3_1 + Z_648_3_2 + Z_648_3_3
   + Z_648_3_4 <= 1
 constraint1_64817: Z_648_17_0 + Z_648_17_1 + Z_648_17_2 + Z_648_17_3
   + Z_648_17_4 <= 1
 constraint1_894: Z_89_4_0 + Z_89_4_1 + Z_89_4_2 + Z_89_4_3 + Z_89_4_4
   <= 1
 constraint1_891: Z_89_1_0 + Z_89_1_1 + Z_89_1_2 + Z_89_1_3 + Z_89_1_4
   <= 1
 constraint1_896: Z_89_6_0 + Z_89_6_1 + Z_89_6_2 + Z_89_6_3 + Z_89_6_4
   <= 1
 constraint1_892: Z_89_2_0 + Z_89_2_1 + Z_89_2_2 + Z_89_2_3 + Z_89_2_4
   <= 1
 constraint1_893: Z_89_3_0 + Z_89_3_1 + Z_89_3_2 + Z_89_3_3 + Z_89_3_4
   <= 1
 constraint1_890: Z_89_0_0 + Z_89_0_1 + Z_89_0_2 + Z_89_0_3 + Z_89_0_4
   <= 1
 constraint1_2741: Z_274_1_0 + Z_274_1_1 + Z_274_1_2 + Z_274_1_3
   + Z_274_1_4 <= 1
 constraint1_2740: Z_274_0_0 + Z_274_0_1 + Z_274_0_2 + Z_274_0_3
   + Z_274_0_4 <= 1
 constraint1_200: Z_20_0_0 + Z_20_0_1 + Z_20_0_2 + Z_20_0_3 + Z_20_0_4
   <= 1
 constraint1_5340: Z_534_0_0 + Z_534_0_1 + Z_534_0_2 + Z_534_0_3
   + Z_534_0_4 <= 1
 constraint1_3010: Z_301_0_0 + Z_301_0_1 + Z_301_0_2 + Z_301_0_3
   + Z_301_0_4 <= 1
 constraint1_7370: Z_737_0_0 + Z_737_0_1 + Z_737_0_2 + Z_737_0_3
   + Z_737_0_4 <= 1
 constraint1_7372: Z_737_2_0 + Z_737_2_1 + Z_737_2_2 + Z_737_2_3
   + Z_737_2_4 <= 1
 constraint1_7374: Z_737_4_0 + Z_737_4_1 + Z_737_4_2 + Z_737_4_3
   + Z_737_4_4 <= 1
 constraint1_7375: Z_737_5_0 + Z_737_5_1 + Z_737_5_2 + Z_737_5_3
   + Z_737_5_4 <= 1
 constraint1_7371: Z_737_1_0 + Z_737_1_1 + Z_737_1_2 + Z_737_1_3
   + Z_737_1_4 <= 1
 constraint1_7373: Z_737_3_0 + Z_737_3_1 + Z_737_3_2 + Z_737_3_3
   + Z_737_3_4 <= 1
 constraint1_7376: Z_737_6_0 + Z_737_6_1 + Z_737_6_2 + Z_737_6_3
   + Z_737_6_4 <= 1
 constraint1_4800: Z_480_0_0 + Z_480_0_1 + Z_480_0_2 + Z_480_0_3
   + Z_480_0_4 <= 1
 constraint1_4803: Z_480_3_0 + Z_480_3_1 + Z_480_3_2 + Z_480_3_3
   + Z_480_3_4 <= 1
 constraint1_3230: Z_323_0_0 + Z_323_0_1 + Z_323_0_2 + Z_323_0_3
   + Z_323_0_4 <= 1
 constraint1_1730: Z_173_0_0 + Z_173_0_1 + Z_173_0_2 + Z_173_0_3
   + Z_173_0_4 <= 1
 constraint1_1733: Z_173_3_0 + Z_173_3_1 + Z_173_3_2 + Z_173_3_3
   + Z_173_3_4 <= 1
 constraint1_1732: Z_173_2_0 + Z_173_2_1 + Z_173_2_2 + Z_173_2_3
   + Z_173_2_4 <= 1
 constraint1_1731: Z_173_1_0 + Z_173_1_1 + Z_173_1_2 + Z_173_1_3
   + Z_173_1_4 <= 1
 constraint1_1840: Z_184_0_0 + Z_184_0_1 + Z_184_0_2 + Z_184_0_3
   + Z_184_0_4 <= 1
 constraint2_3420: Z_342_0_0 <= 1
 constraint2_3421: Z_342_0_1 <= 1
 constraint2_3422: Z_342_0_2 <= 1
 constraint2_3423: Z_342_0_3 <= 1
 constraint2_1860: Z_186_0_0 <= 1
 constraint2_1861: Z_186_0_1 <= 1
 constraint2_1862: Z_186_0_2 <= 1
 constraint2_1863: Z_186_0_3 <= 1
 constraint2_5460: <= 1
 constraint2_5461: <= 1
 constraint2_5462: <= 1
 constraint2_5463: <= 1
 constraint2_7040: Z_704_6_0 + Z_704_0_0 + Z_704_5_0 + Z_704_2_0
   + Z_704_3_0 + Z_704_1_0 <= 1
 constraint2_7041: Z_704_6_1 + Z_704_0_1 + Z_704_5_1 + Z_704_2_1
   + Z_704_3_1 + Z_704_1_1 <= 1
 constraint2_7042: Z_704_6_2 + Z_704_0_2 + Z_704_5_2 + Z_704_2_2
   + Z_704_3_2 + Z_704_1_2 <= 1
 constraint2_7043: Z_704_6_3 + Z_704_0_3 + Z_704_5_3 + Z_704_2_3
   + Z_704_3_3 + Z_704_1_3 <= 1
 constraint2_60: Z_6_0_0 <= 1
 constraint2_61: Z_6_0_1 <= 1
 constraint2_62: Z_6_0_2 <= 1
 constraint2_63: Z_6_0_3 <= 1
 constraint2_4560: Z_456_1_0 + Z_456_2_0 + Z_456_0_0 <= 1
 constraint2_4561: Z_456_1_1 + Z_456_2_1 + Z_456_0_1 <= 1
 constraint2_4562: Z_456_1_2 + Z_456_2_2 + Z_456_0_2 <= 1
 constraint2_4563: Z_456_1_3 + Z_456_2_3 + Z_456_0_3 <= 1
 constraint2_3050: Z_305_0_0 + Z_305_8_0 + Z_305_3_0 + Z_305_7_0
   + Z_305_6_0 + Z_305_2_0 + Z_305_4_0 + Z_305_9_0 + Z_305_5_0 <= 1
 constraint2_3051: Z_305_0_1 + Z_305_8_1 + Z_305_3_1 + Z_305_7_1
   + Z_305_6_1 + Z_305_2_1 + Z_305_4_1 + Z_305_9_1 + Z_305_5_1 <= 1
 constraint2_3052: Z_305_0_2 + Z_305_8_2 + Z_305_3_2 + Z_305_7_2
   + Z_305_6_2 + Z_305_2_2 + Z_305_4_2 + Z_305_9_2 + Z_305_5_2 <= 1
 constraint2_3053: Z_305_0_3 + Z_305_8_3 + Z_305_3_3 + Z_305_7_3
   + Z_305_6_3 + Z_305_2_3 + Z_305_4_3 + Z_305_9_3 + Z_305_5_3 <= 1
 constraint2_1720: Z_172_0_0 <= 1
 constraint2_1721: Z_172_0_1 <= 1
 constraint2_1722: Z_172_0_2 <= 1
 constraint2_1723: Z_172_0_3 <= 1
 constraint2_2550: Z_255_0_0 <= 1
 constraint2_2551: Z_255_0_1 <= 1
 constraint2_2552: Z_255_0_2 <= 1
 constraint2_2553: Z_255_0_3 <= 1
 constraint2_2680: Z_268_0_0 <= 1
 constraint2_2681: Z_268_0_1 <= 1
 constraint2_2682: Z_268_0_2 <= 1
 constraint2_2683: Z_268_0_3 <= 1
 constraint2_3880: <= 1
 constraint2_3881: <= 1
 constraint2_3882: <= 1
 constraint2_3883: <= 1
 constraint2_6480: Z_648_0_0 + Z_648_4_0 + Z_648_2_0 + Z_648_1_0
   + Z_648_5_0 + Z_648_3_0 + Z_648_17_0 <= 1
 constraint2_6481: Z_648_0_1 + Z_648_4_1 + Z_648_2_1 + Z_648_1_1
   + Z_648_5_1 + Z_648_3_1 + Z_648_17_1 <= 1
 constraint2_6482: Z_648_0_2 + Z_648_4_2 + Z_648_2_2 + Z_648_1_2
   + Z_648_5_2 + Z_648_3_2 + Z_648_17_2 <= 1
 constraint2_6483: Z_648_0_3 + Z_648_4_3 + Z_648_2_3 + Z_648_1_3
   + Z_648_5_3 + Z_648_3_3 + Z_648_17_3 <= 1
 constraint2_4990: <= 1
 constraint2_4991: <= 1
 constraint2_4992: <= 1
 constraint2_4993: <= 1
 constraint2_890: Z_89_4_0 + Z_89_1_0 + Z_89_6_0 + Z_89_2_0 + Z_89_3_0
   + Z_89_0_0 <= 1
 constraint2_891: Z_89_4_1 + Z_89_1_1 + Z_89_6_1 + Z_89_2_1 + Z_89_3_1
   + Z_89_0_1 <= 1
 constraint2_892: Z_89_4_2 + Z_89_1_2 + Z_89_6_2 + Z_89_2_2 + Z_89_3_2
   + Z_89_0_2 <= 1
 constraint2_893: Z_89_4_3 + Z_89_1_3 + Z_89_6_3 + Z_89_2_3 + Z_89_3_3
   + Z_89_0_3 <= 1
 constraint2_2740: Z_274_1_0 + Z_274_0_0 <= 1
 constraint2_2741: Z_274_1_1 + Z_274_0_1 <= 1
 constraint2_2742: Z_274_1_2 + Z_274_0_2 <= 1
 constraint2_2743: Z_274_1_3 + Z_274_0_3 <= 1
 constraint2_200: Z_20_0_0 <= 1
 constraint2_201: Z_20_0_1 <= 1
 constraint2_202: Z_20_0_2 <= 1
 constraint2_203: Z_20_0_3 <= 1
 constraint2_5340: Z_534_0_0 <= 1
 constraint2_5341: Z_534_0_1 <= 1
 constraint2_5342: Z_534_0_2 <= 1
 constraint2_5343: Z_534_0_3 <= 1
 constraint2_3010: Z_301_0_0 <= 1
 constraint2_3011: Z_301_0_1 <= 1
 constraint2_3012: Z_301_0_2 <= 1
 constraint2_3013: Z_301_0_3 <= 1
 constraint2_7370: Z_737_0_0 + Z_737_2_0 + Z_737_4_0 + Z_737_5_0
   + Z_737_1_0 + Z_737_3_0 + Z_737_6_0 <= 1
 constraint2_7371: Z_737_0_1 + Z_737_2_1 + Z_737_4_1 + Z_737_5_1
   + Z_737_1_1 + Z_737_3_1 + Z_737_6_1 <= 1
 constraint2_7372: Z_737_0_2 + Z_737_2_2 + Z_737_4_2 + Z_737_5_2
   + Z_737_1_2 + Z_737_3_2 + Z_737_6_2 <= 1
 constraint2_7373: Z_737_0_3 + Z_737_2_3 + Z_737_4_3 + Z_737_5_3
   + Z_737_1_3 + Z_737_3_3 + Z_737_6_3 <= 1
 constraint2_4800: Z_480_0_0 + Z_480_3_0 <= 1
 constraint2_4801: Z_480_0_1 + Z_480_3_1 <= 1
 constraint2_4802: Z_480_0_2 + Z_480_3_2 <= 1
 constraint2_4803: Z_480_0_3 + Z_480_3_3 <= 1
 constraint2_3230: Z_323_0_0 <= 1
 constraint2_3231: Z_323_0_1 <= 1
 constraint2_3232: Z_323_0_2 <= 1
 constraint2_3233: Z_323_0_3 <= 1
 constraint2_2120: <= 1
 constraint2_2121: <= 1
 constraint2_2122: <= 1
 constraint2_2123: <= 1
 constraint2_1730: Z_173_0_0 + Z_173_3_0 + Z_173_2_0 + Z_173_1_0 <= 1
 constraint2_1731: Z_173_0_1 + Z_173_3_1 + Z_173_2_1 + Z_173_1_1 <= 1
 constraint2_1732: Z_173_0_2 + Z_173_3_2 + Z_173_2_2 + Z_173_1_2 <= 1
 constraint2_1733: Z_173_0_3 + Z_173_3_3 + Z_173_2_3 + Z_173_1_3 <= 1
 constraint2_1840: Z_184_0_0 <= 1
 constraint2_1841: Z_184_0_1 <= 1
 constraint2_1842: Z_184_0_2 <= 1
 constraint2_1843: Z_184_0_3 <= 1
 constraint2_1080: <= 1
 constraint2_1081: <= 1
 constraint2_1082: <= 1
 constraint2_1083: <= 1
Bounds
Binaries
 Z_342_0_0 Z_342_0_1 Z_342_0_2 Z_342_0_3 Z_342_0_4 Z_186_0_0 Z_186_0_1
 Z_186_0_2 Z_186_0_3 Z_186_0_4 Z_704_6_0 Z_704_6_1 Z_704_6_2 Z_704_6_3
 Z_704_6_4 Z_704_0_0 Z_704_0_1 Z_704_0_2 Z_704_0_3 Z_704_0_4 Z_704_5_0
 Z_704_5_1 Z_704_5_2 Z_704_5_3 Z_704_5_4 Z_704_2_0 Z_704_2_1 Z_704_2_2
 Z_704_2_3 Z_704_2_4 Z_704_3_0 Z_704_3_1 Z_704_3_2 Z_704_3_3 Z_704_3_4
 Z_704_1_0 Z_704_1_1 Z_704_1_2 Z_704_1_3 Z_704_1_4 Z_6_0_0 Z_6_0_1 Z_6_0_2
 Z_6_0_3 Z_6_0_4 Z_456_1_0 Z_456_1_1 Z_456_1_2 Z_456_1_3 Z_456_1_4
 Z_456_2_0 Z_456_2_1 Z_456_2_2 Z_456_2_3 Z_456_2_4 Z_456_0_0 Z_456_0_1
 Z_456_0_2 Z_456_0_3 Z_456_0_4 Z_305_0_0 Z_305_0_1 Z_305_0_2 Z_305_0_3
 Z_305_0_4 Z_305_8_0 Z_305_8_1 Z_305_8_2 Z_305_8_3 Z_305_8_4 Z_305_3_0
 Z_305_3_1 Z_305_3_2 Z_305_3_3 Z_305_3_4 Z_305_7_0 Z_305_7_1 Z_305_7_2
 Z_305_7_3 Z_305_7_4 Z_305_6_0 Z_305_6_1 Z_305_6_2 Z_305_6_3 Z_305_6_4
 Z_305_2_0 Z_305_2_1 Z_305_2_2 Z_305_2_3 Z_305_2_4 Z_305_4_0 Z_305_4_1
 Z_305_4_2 Z_305_4_3 Z_305_4_4 Z_305_9_0 Z_305_9_1 Z_305_9_2 Z_305_9_3
 Z_305_9_4 Z_305_5_0 Z_305_5_1 Z_305_5_2 Z_305_5_3 Z_305_5_4 Z_172_0_0
 Z_172_0_1 Z_172_0_2 Z_172_0_3 Z_172_0_4 Z_255_0_0 Z_255_0_1 Z_255_0_2
 Z_255_0_3 Z_255_0_4 Z_268_0_0 Z_268_0_1 Z_268_0_2 Z_268_0_3 Z_268_0_4
 Z_648_0_0 Z_648_0_1 Z_648_0_2 Z_648_0_3 Z_648_0_4 Z_648_4_0 Z_648_4_1
 Z_648_4_2 Z_648_4_3 Z_648_4_4 Z_648_2_0 Z_648_2_1 Z_648_2_2 Z_648_2_3
 Z_648_2_4 Z_648_1_0 Z_648_1_1 Z_648_1_2 Z_648_1_3 Z_648_1_4 Z_648_5_0
 Z_648_5_1 Z_648_5_2 Z_648_5_3 Z_648_5_4 Z_648_3_0 Z_648_3_1 Z_648_3_2
 Z_648_3_3 Z_648_3_4 Z_648_17_0 Z_648_17_1 Z_648_17_2 Z_648_17_3 Z_648_17_4
 Z_89_4_0 Z_89_4_1 Z_89_4_2 Z_89_4_3 Z_89_4_4 Z_89_1_0 Z_89_1_1 Z_89_1_2
 Z_89_1_3 Z_89_1_4 Z_89_6_0 Z_89_6_1 Z_89_6_2 Z_89_6_3 Z_89_6_4 Z_89_2_0
 Z_89_2_1 Z_89_2_2 Z_89_2_3 Z_89_2_4 Z_89_3_0 Z_89_3_1 Z_89_3_2 Z_89_3_3
 Z_89_3_4 Z_89_0_0 Z_89_0_1 Z_89_0_2 Z_89_0_3 Z_89_0_4 Z_274_1_0 Z_274_1_1
 Z_274_1_2 Z_274_1_3 Z_274_1_4 Z_274_0_0 Z_274_0_1 Z_274_0_2 Z_274_0_3
 Z_274_0_4 Z_20_0_0 Z_20_0_1 Z_20_0_2 Z_20_0_3 Z_20_0_4 Z_534_0_0 Z_534_0_1
 Z_534_0_2 Z_534_0_3 Z_534_0_4 Z_301_0_0 Z_301_0_1 Z_301_0_2 Z_301_0_3
 Z_301_0_4 Z_737_0_0 Z_737_0_1 Z_737_0_2 Z_737_0_3 Z_737_0_4 Z_737_2_0
 Z_737_2_1 Z_737_2_2 Z_737_2_3 Z_737_2_4 Z_737_4_0 Z_737_4_1 Z_737_4_2
 Z_737_4_3 Z_737_4_4 Z_737_5_0 Z_737_5_1 Z_737_5_2 Z_737_5_3 Z_737_5_4
 Z_737_1_0 Z_737_1_1 Z_737_1_2 Z_737_1_3 Z_737_1_4 Z_737_3_0 Z_737_3_1
 Z_737_3_2 Z_737_3_3 Z_737_3_4 Z_737_6_0 Z_737_6_1 Z_737_6_2 Z_737_6_3
 Z_737_6_4 Z_480_0_0 Z_480_0_1 Z_480_0_2 Z_480_0_3 Z_480_0_4 Z_480_3_0
 Z_480_3_1 Z_480_3_2 Z_480_3_3 Z_480_3_4 Z_323_0_0 Z_323_0_1 Z_323_0_2
 Z_323_0_3 Z_323_0_4 Z_173_0_0 Z_173_0_1 Z_173_0_2 Z_173_0_3 Z_173_0_4
 Z_173_3_0 Z_173_3_1 Z_173_3_2 Z_173_3_3 Z_173_3_4 Z_173_2_0 Z_173_2_1
 Z_173_2_2 Z_173_2_3 Z_173_2_4 Z_173_1_0 Z_173_1_1 Z_173_1_2 Z_173_1_3
 Z_173_1_4 Z_184_0_0 Z_184_0_1 Z_184_0_2 Z_184_0_3 Z_184_0_4
End
